qbf_easy_train/easy_2111_SAT.qdimacs
p cnf 25 62
a 12 21 14 0
e 1 2 3 4 5 6 7 8 9 10 11 13 15 16 17 18 19 20 22 23 24 25 0
-3 -1 0
-3 2 0
1 -2 3 0
6 -5 -7 0
-6 5 -7 0
6 5 7 0
-6 -5 7 0
-8 -5 0
-8 -7 0
5 7 8 0
-9 8 0
-9 5 0
-8 -5 9 0
-10 9 0
-10 -1 0
-9 1 10 0
11 -4 0
11 -10 0
4 10 -11 0
10 -12 -13 0
-10 12 -13 0
10 12 13 0
-10 -12 13 0
15 -14 0
15 -6 0
14 6 -15 0
16 13 0
16 -15 0
-13 15 -16 0
-17 -11 0
-17 -16 0
11 16 17 0
-1 -18 -19 0
1 18 -19 0
-1 18 19 0
1 -18 19 0
-9 7 -20 0
9 -7 -20 0
-9 -7 20 0
9 7 20 0
21 7 0
21 -9 0
-7 9 -21 0
-22 -20 0
-22 21 0
20 -21 22 0
23 -19 0
23 -22 0
19 22 -23 0
24 -17 0
24 -23 0
17 23 -24 0
25 -3 0
25 24 0
3 -24 -25 0
25 1 -21 9 17 3 0
-1 4 -16 23 14 0
-17 25 -15 23 -3 9 0
6 -21 -15 0
-14 -15 -24 -6 22 19 0
-24 21 15 0
25 0
