sat_easy_train/easy_2111_SAT.dimacs
p cnf 104 338
3 -4 0
-3 -4 0
3 6 -7 0
-3 -6 -7 0
3 -6 7 0
-3 6 7 0
8 -5 0
8 7 0
5 -7 -8 0
10 8 0
10 -9 0
-8 9 -10 0
11 -4 0
11 -10 0
4 10 -11 0
12 -2 0
12 11 0
2 -11 -12 0
6 13 0
-6 13 0
-14 -3 0
-14 13 0
3 -13 14 0
-15 12 0
-15 14 0
-12 -14 15 0
16 15 0
16 -5 0
-15 5 -16 0
1 16 -17 0
-1 -16 -17 0
1 -16 17 0
-1 16 17 0
19 -15 0
19 -18 0
15 18 -19 0
-21 -6 0
-21 20 0
6 -20 21 0
19 -21 -22 0
-19 21 -22 0
19 21 22 0
-19 -21 22 0
17 22 -23 0
-17 -22 -23 0
17 -22 23 0
-17 22 23 0
-24 2 -25 0
24 -2 -25 0
-24 -2 25 0
24 2 25 0
-20 -10 -26 0
20 10 -26 0
-20 10 26 0
20 -10 26 0
28 27 0
28 -6 0
-27 6 -28 0
-29 9 0
-29 26 0
-9 -26 29 0
-31 -14 0
-31 -30 0
14 30 31 0
-32 29 0
-32 -31 0
-29 31 32 0
-28 -32 -33 0
28 32 -33 0
-28 32 33 0
28 -32 33 0
2 33 -34 0
-2 -33 -34 0
2 -33 34 0
-2 33 34 0
-35 -26 0
-35 34 0
26 -34 35 0
-37 -33 0
-37 -36 0
33 36 37 0
35 37 -38 0
-35 -37 -38 0
35 -37 38 0
-35 37 38 0
39 25 0
39 38 0
-25 -38 -39 0
-23 -39 -40 0
23 39 -40 0
-23 39 40 0
23 -39 40 0
41 2 0
41 -24 0
-2 24 -41 0
-42 -12 0
-42 41 0
12 -41 42 0
-43 42 0
-43 -7 0
-42 7 43 0
46 44 0
46 -45 0
-44 45 -46 0
-36 -6 -47 0
36 6 -47 0
-36 6 47 0
36 -6 47 0
-48 -46 0
-48 47 0
46 -47 48 0
-49 43 0
-49 48 0
-43 -48 49 0
50 -6 -51 0
-50 6 -51 0
50 6 51 0
-50 -6 51 0
52 51 0
52 13 0
-51 -13 -52 0
53 52 0
53 33 0
-52 -33 -53 0
14 53 -54 0
-14 -53 -54 0
14 -53 54 0
-14 53 54 0
27 32 -55 0
-27 -32 -55 0
27 -32 55 0
-27 32 55 0
-13 47 -56 0
13 -47 -56 0
-13 -47 56 0
13 47 56 0
-57 55 0
-57 56 0
-55 -56 57 0
58 9 0
58 -2 0
-9 2 -58 0
59 -57 0
59 -58 0
57 58 -59 0
60 5 0
60 27 0
-5 -27 -60 0
36 60 -61 0
-36 -60 -61 0
36 -60 61 0
-36 60 61 0
62 20 0
62 61 0
-20 -61 -62 0
63 59 0
63 62 0
-59 -62 -63 0
-54 -63 -64 0
54 63 -64 0
-54 63 64 0
54 -63 64 0
-2 4 -65 0
2 -4 -65 0
-2 -4 65 0
2 4 65 0
66 34 0
66 -65 0
-34 65 -66 0
67 66 0
67 46 0
-66 -46 -67 0
68 -14 0
68 -15 0
14 15 -68 0
69 7 0
69 68 0
-7 -68 -69 0
67 -69 -70 0
-67 69 -70 0
67 69 70 0
-67 -69 70 0
71 15 0
71 29 0
-15 -29 -71 0
72 -16 0
72 71 0
16 -71 -72 0
73 70 0
73 -72 0
-70 72 -73 0
64 -73 -74 0
-64 73 -74 0
64 73 74 0
-64 -73 74 0
44 31 -75 0
-44 -31 -75 0
44 -31 75 0
-44 31 75 0
76 75 0
76 10 0
-75 -10 -76 0
-2 14 -77 0
2 -14 -77 0
-2 -14 77 0
2 14 77 0
78 76 0
78 -77 0
-76 77 -78 0
12 14 -79 0
-12 -14 -79 0
12 -14 79 0
-12 14 79 0
-80 78 0
-80 79 0
-78 -79 80 0
30 13 -81 0
-30 -13 -81 0
30 -13 81 0
-30 13 81 0
-15 -24 -82 0
15 24 -82 0
-15 24 82 0
15 -24 82 0
-81 82 -83 0
81 -82 -83 0
-81 -82 83 0
81 82 83 0
-84 26 0
-84 75 0
-26 -75 84 0
51 -5 -85 0
-51 5 -85 0
51 5 85 0
-51 -5 85 0
-86 85 0
-86 47 0
-85 -47 86 0
-3 8 -87 0
3 -8 -87 0
-3 -8 87 0
3 8 87 0
88 -87 0
88 55 0
87 -55 -88 0
-86 88 -89 0
86 -88 -89 0
-86 -88 89 0
86 88 89 0
-84 -89 -90 0
84 89 -90 0
-84 89 90 0
84 -89 90 0
91 83 0
91 90 0
-83 -90 -91 0
92 75 0
92 -32 0
-75 32 -92 0
93 -91 0
93 -92 0
91 92 -93 0
-94 80 0
-94 93 0
-80 -93 94 0
96 -95 0
96 -65 0
95 65 -96 0
-97 -96 0
-97 52 0
96 -52 97 0
98 -12 0
98 -97 0
12 97 -98 0
94 -98 -99 0
-94 98 -99 0
94 98 99 0
-94 -98 99 0
100 -74 0
100 99 0
74 -99 -100 0
101 -49 0
101 100 0
49 -100 -101 0
102 15 0
102 -41 0
-15 41 -102 0
-103 101 0
-103 -102 0
-101 102 103 0
104 -40 0
104 -103 0
40 103 -104 0
-46 -68 -99 60 0
58 42 99 0
50 -61 1 0
-52 -47 19 0
35 -45 -90 -1 -48 12 0
-77 -40 0
9 69 -24 3 45 0
39 85 0
-68 -95 0
-35 -82 0
-14 -10 -43 0
61 -22 -98 0
43 -55 -31 65 80 0
82 19 0
25 54 60 87 0
-72 9 30 -74 0
-104 50 22 63 91 -65 0
-2 -58 90 0
-94 -93 0
22 -49 -94 0
-75 -100 -36 6 0
65 -50 -97 8 -4 0
45 -54 -50 -19 90 0
-101 8 60 35 70 -84 0
-89 -43 20 -15 -103 73 0
-10 -77 0
-100 -18 -34 0
-47 6 -5 0
4 -76 -66 -69 -62 -41 0
-63 -73 -57 0
-60 -76 -48 86 -19 -28 0
18 79 -27 -76 0
75 8 -81 -82 0
5 76 0
-60 2 29 0
97 12 0
-14 81 0
-5 22 -45 -97 32 0
-24 31 -60 -99 -104 0
-98 52 -19 0
97 88 -39 -38 -96 -94 0
42 77 76 0
19 -6 0
79 56 38 -24 -98 0
104 0
